c This is QMaxSAT 2017 based on 14.07
c This is Glucose 3.0
c This is MiniSat 2.2.0
c WARNING: for repeatability, setting FPU to use double precision
c card = mrwto, comp = 0, pmodel = 0, narr = 2, mct = 29, verb = 0
cr firstCPXsol 0 0 0
c top = 167313
c |  Number of variables:    22850                                            |
c |  Number of clauses:      7564932                                          |
c |  Weight of hard clauses: 167313                                           |
c |  Number of soft clauses: 1624                                             |
c |  Number of unit soft clauses: 1624                                        |
c |  Maximum Cardinality (by unit): 334624       (334624      )               |
c last restart ## conflicts  :  0 842 
o 3186 | cpuTime 0.669529 s
c Sum of weights = 167312
c A number of soft clauses remained = 812
c MRWTO encoding for Pseudo-Boolean Constraints
c sizeMax=3186
c No.0 Divisor=15	generated by pow1
c No.1 Divisor=15	generated by pow1
c No.2 Divisor=15	generated by pow1
c p0= 15	p1= 15	p2= 15	
c number of digits = 4
c linkingVar[0].size = 15, linkingVar[1].size = 15, linkingVar[2].size = 15, linkingVar[3].size = 1, 
c Pseudo-Boolean Constraints: 20752 variables and 251002 clauses
c Sum of weights = 167312
c A number of soft clauses remained = 812
c MRWTO encoding for Pseudo-Boolean Constraints
c sizeMax=3186
c No.0 Divisor=15	generated by pow1
c No.1 Divisor=15	generated by pow1
c No.2 Divisor=15	generated by pow1
c p0= 15	p1= 15	p2= 15	
c number of digits = 4
c linkingVar[0].size = 15, linkingVar[1].size = 15, linkingVar[2].size = 15, linkingVar[3].size = 1, 
c Pseudo-Boolean Constraints: 20752 variables and 251002 clauses
c last restart ## conflicts  :  184 3503 
o 2724 | cpuTime 63.0088 s
c last restart ## conflicts  :  383 2930 
o 2704 | cpuTime 63.1088 s
c last restart ## conflicts  :  884 1953 
o 2604 | cpuTime 81.1352 s
c last restart ## conflicts  :  1480 2083 
o 2603 | cpuTime 150.017 s
c last restart ## conflicts  :  349 1899 
o 2589 | cpuTime 243.935 s
c last restart ## conflicts  :  405 2018 
o 2502 | cpuTime 248.95 s
c last restart ## conflicts  :  812 1622 
o 2497 | cpuTime 295.88 s
c last restart ## conflicts  :  599 2116 
o 2379 | cpuTime 300.247 s
c last restart ## conflicts  :  1831 1749 
o 2291 | cpuTime 327.475 s
c last restart ## conflicts  :  245 1917 
o 2247 | cpuTime 399.696 s
c last restart ## conflicts  :  75 2135 
o 2153 | cpuTime 407.963 s
c last restart ## conflicts  :  5 2053 
o 2084 | cpuTime 414.28 s
c last restart ## conflicts  :  178 1888 
o 2065 | cpuTime 427.782 s
c last restart ## conflicts  :  96 1809 
o 1983 | cpuTime 483.073 s
c last restart ## conflicts  :  673 2135 
o 1947 | cpuTime 485.493 s
c last restart ## conflicts  :  587 1726 
o 1780 | cpuTime 502.089 s
c last restart ## conflicts  :  1066 1664 
o 1754 | cpuTime 668.638 s
c last restart ## conflicts  :  464 1521 
o 1752 | cpuTime 981.709 s
c last restart ## conflicts  :  645 1600 
o 1643 | cpuTime 1040.09 s
c last restart ## conflicts  :  4376 1584 
o 1607 | cpuTime 1106.58 s
c last restart ## conflicts  :  21377 1875 
o 1588 | cpuTime 1541.52 s
c last restart ## conflicts  :  5448 1666 
o 1543 | cpuTime 2164.19 s
c last restart ## conflicts  :  5086 1569 
o 1453 | cpuTime 2829.17 s
s UNKNOWN
c Search is stopped by a limit (maybe time-limit)
cr positiVarArr: [ | 24@1(1->24) | 87@1(3->29) | 97@1(4->10) | 119@1(5->3) | 237@1(9->5) | 287@1(10->26) | 312@1(11->22) | 410@1(15->4) | 460@1(16->25) | 533@1(19->11) | 624@1(22->15) | 683@1(24->16) | 715@1(25->19) | 734@1(26->9) | 813@1(29->1) | 854@2(1->13) | 891@2(2->21) | 998@2(6->12) | 1029@2(7->14) | 1067@2(8->23) | 1188@2(12->28) | 1216@2(13->27) | 1235@2(14->17) | 1323@2(17->18) | 1354@2(18->20) | 1394@2(20->2) | 1427@2(21->6) | 1486@2(23->7) | 1603@2(27->8) | 1625@2(28->1) | ]
cr the 1-th chain: [ 1->24->16->25->19->11->22->15->4->10->26->9->5->3->29->1 ] (#non-depot=14) {#cumul.=15}
cr the 2-th chain: [ 1->13->27->8->23->7->14->17->18->20->2->21->6->12->28->1 ] (#non-depot=14) {#cumul.=29}
c Latest Answer = 0 by 24 loops
c restarts              : 44038
c conflicts             : 12275220       (3420 /sec)
c decisions             : 76683286       (0.00 % random) (21364 /sec)
c propagations          : 18758904438    (5226359 /sec)
c conflict literals     : 5075044018     (27.78 % deleted)
c Memory used           : 1575.00 MB
c CPU time              : 3589.29 s
